8    8    2
 2  2 1 2 12 2 7 8 12
 2  2 3 4 22 2 7 8 18
 2  2 3 4 18 2 7 8 14
 2  2 5 6 32 2 7 8 14
 2  2 1 2 18 2 5 6 36
 3  2 3 4 26 2 5 6 38 2 7 8 12
 3  2 1 2 20 2 3 4 18 2 5 6 26
 3  2 1 2 22 2 3 4 18 2 7 8 16